8
0.00	66.01	47.76	45.65	73.88	55.97	84.40	30.46	
66.01	0.00	27.02	34.71	61.03	23.02	24.84	61.29	
47.76	27.02	0.00	7.81	41.05	8.25	51.62	35.11	
45.65	34.71	7.81	0.00	35.69	13.60	59.40	28.64	
73.88	61.03	41.05	35.69	0.00	39.46	84.58	45.45	
55.97	23.02	8.25	13.60	39.46	0.00	47.80	42.20	
84.40	24.84	51.62	59.40	84.58	47.80	0.00	84.88	
30.46	61.29	35.11	28.64	45.45	42.20	84.88	0.00	
